Normalized Data/p10_27_normalized_split0.vrp
NAME:p10_27_NORMALIZED_split
BEST_KNOWN: 0
COMMENT: 0
DIMENSION: 842
CAPACITY: 100
EDGE_WEIGHT_FORMAT: FUNCTION
EDGE_WEIGHT_TYPE: EXACT_2D
NODE_COORD_SECTION
1 0.00000 0.00000
2 -8 33
3 -8 33
4 -8 33
5 -8 33
6 -8 33
7 -11 -45
8 -11 -45
9 -11 -45
10 26 2
11 26 2
12 26 2
13 26 2
14 -2 -39
15 -2 -39
16 0 11
17 0 11
18 0 11
19 0 11
20 25 -22
21 25 -22
22 25 -22
23 -32 -22
24 -32 -22
25 -32 -22
26 -32 -22
27 -32 -22
28 -32 -22
29 9 36
30 9 36
31 9 36
32 9 36
33 42 -49
34 42 -49
35 42 -49
36 -28 0
37 -28 0
38 -28 0
39 -28 0
40 -5 17
41 -5 17
42 -5 17
43 -5 17
44 -5 17
45 21 11
46 21 11
47 21 11
48 21 11
49 21 11
50 6 -2
51 6 -2
52 6 -2
53 6 -2
54 6 -2
55 6 -2
56 -31 -38
57 -31 -38
58 -31 -38
59 -31 -38
60 -31 -38
61 -31 -38
62 -36 -16
63 -36 -16
64 -36 -16
65 -36 -16
66 38 29
67 38 29
68 38 29
69 38 29
70 38 29
71 38 29
72 38 29
73 37 47
74 37 47
75 37 47
76 37 47
77 -7 43
78 -7 43
79 -7 43
80 -7 43
81 -7 43
82 37 30
83 37 30
84 37 30
85 -44 20
86 -44 20
87 -44 20
88 -44 20
89 -44 20
90 -44 20
91 -44 20
92 23 19
93 23 19
94 23 19
95 -47 -20
96 -47 -20
97 -47 -20
98 -47 -20
99 -47 -20
100 -14 -29
101 -14 -29
102 -14 -29
103 -14 -29
104 23 -45
105 23 -45
106 23 -45
107 23 -45
108 -22 20
109 -22 20
110 -22 20
111 -22 20
112 -22 20
113 -22 20
114 16 10
115 16 10
116 16 10
117 46 30
118 46 30
119 46 30
120 4 36
121 4 36
122 4 36
123 4 36
124 4 36
125 6 -25
126 6 -25
127 6 -25
128 6 -25
129 6 -25
130 6 -25
131 5 17
132 5 17
133 5 17
134 5 17
135 5 17
136 5 17
137 5 17
138 -21 -17
139 -21 -17
140 -21 -17
141 -21 -17
142 -50 -41
143 -50 -41
144 -50 -41
145 -50 -41
146 -50 -41
147 -50 -41
148 4 -1
149 4 -1
150 4 -1
151 4 -1
152 2 50
153 2 50
154 -23 -33
155 -23 -33
156 -23 -33
157 -23 -33
158 -23 -33
159 -23 -33
160 28 46
161 28 46
162 28 46
163 28 46
164 28 46
165 28 46
166 -47 23
167 -47 23
168 -47 23
169 -47 23
170 39 16
171 39 16
172 39 16
173 7 -48
174 7 -48
175 7 -48
176 7 -48
177 7 -48
178 7 -48
179 7 -48
180 19 2
181 19 2
182 19 2
183 19 2
184 19 2
185 31 -19
186 31 -19
187 31 -19
188 31 -19
189 31 -19
190 16 -28
191 16 -28
192 16 -28
193 16 -28
194 16 -28
195 16 -28
196 1 -16
197 1 -16
198 1 -16
199 1 -16
200 1 -16
201 1 -16
202 1 -16
203 27 33
204 27 33
205 27 33
206 27 33
207 27 33
208 27 33
209 27 33
210 -42 -41
211 -42 -41
212 -11 14
213 -11 14
214 -11 14
215 -48 36
216 -48 36
217 -48 36
218 45 39
219 45 39
220 45 39
221 45 39
222 45 39
223 39 -50
224 39 -50
225 39 -50
226 39 -50
227 -9 -37
228 -9 -37
229 -9 -37
230 -9 -37
231 35 -16
232 35 -16
233 14 -12
234 14 -12
235 43 42
236 43 42
237 -36 13
238 -36 13
239 -36 13
240 -36 13
241 -36 13
242 -36 13
243 23 34
244 23 34
245 23 34
246 23 34
247 23 34
248 -33 50
249 -33 50
250 -33 50
251 -15 -14
252 -15 -14
253 -15 -14
254 -15 -14
255 -15 -14
256 -15 -14
257 16 27
258 16 27
259 16 27
260 16 27
261 16 27
262 24 23
263 24 23
264 -19 -17
265 -19 -17
266 -19 -17
267 -19 -17
268 -10 27
269 -10 27
270 -10 27
271 -10 27
272 -10 27
273 -10 27
274 45 -21
275 45 -21
276 45 -21
277 45 -21
278 -34 -19
279 -34 -19
280 -34 -19
281 -34 -19
282 -34 -19
283 -26 -12
284 -26 -12
285 -26 -12
286 -26 -12
287 -26 -12
288 39 -24
289 39 -24
290 39 -24
291 39 -24
292 39 -24
293 39 -24
294 39 -24
295 -45 -14
296 -45 -14
297 -45 -14
298 -45 -14
299 -45 -14
300 -45 -14
301 -27 19
302 -27 19
303 -27 19
304 -27 19
305 -49 -29
306 -49 -29
307 -49 -29
308 -49 -29
309 44 -46
310 50 41
311 50 41
312 50 41
313 32 0
314 32 0
315 32 0
316 7 25
317 7 25
318 7 25
319 22 -19
320 22 -19
321 22 -19
322 22 -19
323 22 -19
324 22 -19
325 32 21
326 32 21
327 32 21
328 -24 26
329 -24 26
330 -24 26
331 -24 26
332 -24 26
333 -24 26
334 -45 16
335 -45 16
336 -45 16
337 -45 16
338 -35 -15
339 -35 -15
340 -35 -15
341 48 -26
342 48 -26
343 6 -35
344 6 -35
345 6 -35
346 6 -35
347 6 -35
348 31 -43
349 31 -43
350 31 -43
351 31 -43
352 -24 14
353 -24 14
354 -36 32
355 -36 32
356 -36 32
357 -36 32
358 -36 32
359 16 -14
360 16 -14
361 16 -14
362 16 -14
363 16 -14
364 16 -14
365 -8 -27
366 -8 -27
367 -37 -12
368 -37 -12
369 -37 -12
370 -43 -12
371 -43 -12
372 -43 -12
373 -41 -41
374 -41 -41
375 -41 -41
376 -41 -41
377 27 -2
378 27 -2
379 27 -2
380 27 -2
381 27 -2
382 6 -31
383 6 -31
384 6 -31
385 37 46
386 -42 -3
387 -42 -3
388 -42 -3
389 12 -37
390 12 -37
391 12 -37
392 12 -37
393 -44 -36
394 -44 -36
395 32 48
396 32 48
397 32 48
398 -3 44
399 -3 44
400 -3 44
401 -3 44
402 -17 14
403 -17 14
404 -17 14
405 -17 14
406 31 6
407 31 6
408 31 6
409 31 6
410 31 6
411 28 -20
412 28 -20
413 28 -20
414 46 25
415 46 25
416 46 25
417 46 25
418 -13 -34
419 -13 -34
420 -13 -34
421 -13 -34
422 -13 -34
423 -46 35
424 -46 35
425 -46 35
426 -46 35
427 49 23
428 49 23
429 49 23
430 49 23
431 49 23
432 49 23
433 -14 -3
434 -14 -3
435 -14 -3
436 -14 -3
437 -14 -3
438 22 44
439 22 44
440 22 44
441 22 44
442 22 44
443 22 44
444 10 2
445 10 2
446 10 2
447 10 2
448 10 2
449 10 2
450 -13 -10
451 -13 -10
452 -13 -10
453 -13 -10
454 -13 -10
455 -13 -10
456 -13 -10
457 -10 -49
458 -10 -49
459 -33 -42
460 -33 -42
461 -33 -42
462 -33 -42
463 -10 16
464 -10 16
465 -39 49
466 -39 49
467 -39 49
468 46 40
469 46 40
470 46 40
471 46 40
472 46 40
473 46 40
474 25 20
475 25 20
476 25 20
477 25 20
478 -24 -48
479 -24 -48
480 -24 -48
481 -24 -48
482 -12 20
483 -12 20
484 -12 20
485 -12 20
486 3 45
487 3 45
488 3 45
489 -36 46
490 -36 46
491 -36 46
492 -36 46
493 -36 46
494 -16 21
495 -16 21
496 -16 21
497 -16 21
498 10 -7
499 10 -7
500 26 24
501 26 24
502 26 24
503 26 24
504 26 24
505 -24 -27
506 -24 -27
507 -1 -12
508 -1 -12
509 -1 -12
510 -1 -12
511 13 -49
512 13 -49
513 13 -49
514 13 -49
515 13 -49
516 -42 33
517 -42 33
518 -42 33
519 -42 33
520 25 11
521 25 11
522 25 11
523 10 -19
524 10 -19
525 10 -19
526 10 -19
527 10 -19
528 7 45
529 7 45
530 7 45
531 15 39
532 15 39
533 15 39
534 15 39
535 15 39
536 19 37
537 19 37
538 19 37
539 -6 -12
540 -6 -12
541 -6 -12
542 -6 -12
543 47 -45
544 47 -45
545 16 46
546 1 -9
547 -31 23
548 -31 23
549 -31 23
550 -25 -46
551 -25 -46
552 -25 -46
553 -4 2
554 -4 2
555 -4 2
556 -4 2
557 36 10
558 36 10
559 36 10
560 36 10
561 36 10
562 -44 -30
563 -44 -30
564 -44 -30
565 -44 -30
566 -44 -30
567 -44 -30
568 -21 28
569 -21 28
570 -21 28
571 -21 28
572 -21 28
573 39 -26
574 39 -26
575 39 -26
576 39 -26
577 39 -26
578 39 -26
579 9 19
580 9 19
581 -28 50
582 -28 50
583 -28 50
584 -28 50
585 -28 50
586 -48 10
587 -48 10
588 -48 10
589 -48 10
590 -30 -5
591 -30 -5
592 -30 -5
593 -30 -5
594 -30 -5
595 -8 24
596 -8 24
597 -8 24
598 -8 24
599 -8 24
600 38 48
601 38 48
602 38 48
603 38 48
604 38 48
605 38 48
606 -1 -2
607 -1 -2
608 -42 -31
609 -42 -31
610 -42 -31
611 -42 -31
612 -42 -31
613 -42 -31
614 -42 -31
615 -48 -8
616 -40 -17
617 -40 -17
618 -40 -17
619 -40 -17
620 -21 9
621 -21 9
622 -21 9
623 -21 9
624 -2 -30
625 -2 -30
626 -2 -30
627 -2 -30
628 -2 -30
629 -2 -30
630 39 -9
631 39 -9
632 39 -9
633 39 -9
634 39 -9
635 -34 -11
636 -34 -11
637 -34 -11
638 15 -19
639 15 -19
640 -7 -37
641 -7 -37
642 -7 -37
643 -7 -37
644 -7 -37
645 -7 -37
646 -21 24
647 -21 24
648 -21 24
649 -21 24
650 27 -25
651 27 -25
652 27 -25
653 27 -25
654 27 -25
655 27 -25
656 -35 -12
657 -35 -12
658 -35 -12
659 -35 -12
660 -35 -12
661 41 17
662 41 17
663 41 17
664 41 17
665 41 17
666 41 17
667 27 22
668 27 22
669 27 22
670 27 22
671 27 22
672 27 22
673 38 -6
674 38 -6
675 -26 26
676 -26 26
677 -26 26
678 -26 26
679 26 -29
680 26 -29
681 26 -29
682 26 -29
683 26 -4
684 26 -4
685 26 -4
686 26 -4
687 -35 -2
688 -35 -2
689 -35 -2
690 6 -9
691 6 -9
692 6 -9
693 6 -9
694 6 -9
695 37 -46
696 37 -46
697 -2 -3
698 -2 -3
699 -2 -3
700 -2 -3
701 -2 -3
702 21 5
703 21 5
704 21 5
705 21 5
706 21 5
707 21 5
708 -22 21
709 -22 21
710 1 39
711 1 39
712 1 39
713 1 39
714 -7 -16
715 -7 -16
716 -7 -16
717 -7 -16
718 -31 28
719 -31 28
720 -28 11
721 -45 -11
722 -45 -11
723 -45 -11
724 -45 -11
725 -45 -11
726 -45 -11
727 6 39
728 6 39
729 6 39
730 6 39
731 6 39
732 23 -19
733 23 -19
734 23 -19
735 23 -19
736 23 -19
737 23 -19
738 -2 -25
739 -2 -25
740 -2 -25
741 -2 -25
742 -2 -25
743 -19 0
744 -19 0
745 -19 0
746 -17 -33
747 -17 -33
748 -17 -33
749 -17 -33
750 -50 43
751 -50 43
752 -50 43
753 -50 43
754 -50 43
755 -10 33
756 -10 33
757 -10 33
758 -10 33
759 -10 33
760 -10 33
761 -10 33
762 -33 -6
763 -33 -6
764 -33 -6
765 -33 -6
766 -33 -6
767 -47 -21
768 -47 -21
769 -47 -21
770 -47 -21
771 47 11
772 47 11
773 47 11
774 47 11
775 47 11
776 47 11
777 -37 -42
778 -37 -42
779 -37 -42
780 24 35
781 24 35
782 -39 -36
783 -39 -36
784 -39 -36
785 -39 -36
786 -39 -36
787 50 -21
788 50 -21
789 50 -21
790 -41 -19
791 -41 -19
792 -41 -19
793 -41 -19
794 -41 -19
795 -41 -19
796 -41 -19
797 -31 43
798 -31 43
799 -31 43
800 -31 43
801 -31 43
802 -11 -35
803 -11 -35
804 -11 -35
805 -11 -35
806 -11 -35
807 -11 -35
808 26 29
809 26 29
810 26 29
811 26 29
812 26 29
813 26 29
814 26 29
815 27 1
816 27 1
817 27 1
818 27 1
819 48 29
820 48 29
821 48 29
822 48 29
823 30 16
824 30 16
825 30 16
826 30 16
827 30 16
828 -27 28
829 -27 28
830 -27 28
831 -27 28
832 -27 28
833 19 -22
834 19 -22
835 19 -22
836 19 -22
837 19 -22
838 -9 6
839 -9 6
840 -9 6
841 -9 6
842 -9 6
DEMAND_SECTION
1 0
2 10
3 1
4 1
5 1
6 1
7 20
8 1
9 1
10 20
11 10
12 1
13 1
14 20
15 10
16 20
17 5
18 1
19 1
20 20
21 1
22 1
23 20
24 20
25 5
26 1
27 1
28 1
29 20
30 10
31 5
32 1
33 20
34 5
35 1
36 20
37 10
38 1
39 1
40 20
41 10
42 5
43 1
44 1
45 20
46 20
47 1
48 1
49 1
50 20
51 10
52 1
53 1
54 1
55 1
56 20
57 10
58 5
59 1
60 1
61 1
62 20
63 5
64 1
65 1
66 20
67 10
68 5
69 1
70 1
71 1
72 1
73 20
74 10
75 1
76 1
77 10
78 5
79 1
80 1
81 1
82 20
83 10
84 5
85 20
86 20
87 5
88 1
89 1
90 1
91 1
92 20
93 20
94 1
95 20
96 20
97 5
98 1
99 1
100 20
101 20
102 1
103 1
104 20
105 10
106 1
107 1
108 20
109 20
110 1
111 1
112 1
113 1
114 20
115 10
116 1
117 20
118 10
119 5
120 20
121 10
122 1
123 1
124 1
125 20
126 10
127 1
128 1
129 1
130 1
131 20
132 10
133 5
134 1
135 1
136 1
137 1
138 10
139 5
140 1
141 1
142 20
143 20
144 5
145 1
146 1
147 1
148 10
149 5
150 1
151 1
152 20
153 20
154 20
155 10
156 1
157 1
158 1
159 1
160 20
161 10
162 1
163 1
164 1
165 1
166 10
167 5
168 1
169 1
170 20
171 5
172 1
173 20
174 20
175 5
176 1
177 1
178 1
179 1
180 20
181 20
182 5
183 1
184 1
185 10
186 5
187 1
188 1
189 1
190 10
191 5
192 1
193 1
194 1
195 1
196 20
197 20
198 5
199 1
200 1
201 1
202 1
203 20
204 20
205 5
206 1
207 1
208 1
209 1
210 20
211 10
212 20
213 1
214 1
215 10
216 5
217 1
218 20
219 20
220 1
221 1
222 1
223 10
224 5
225 1
226 1
227 20
228 10
229 1
230 1
231 20
232 20
233 20
234 20
235 20
236 5
237 20
238 10
239 5
240 1
241 1
242 1
243 10
244 1
245 1
246 1
247 1
248 10
249 5
250 1
251 20
252 10
253 5
254 1
255 1
256 1
257 20
258 10
259 1
260 1
261 1
262 20
263 20
264 20
265 5
266 1
267 1
268 20
269 20
270 5
271 1
272 1
273 1
274 20
275 5
276 1
277 1
278 10
279 1
280 1
281 1
282 1
283 10
284 1
285 1
286 1
287 1
288 20
289 20
290 5
291 1
292 1
293 1
294 1
295 20
296 10
297 5
298 1
299 1
300 1
301 20
302 20
303 5
304 1
305 20
306 20
307 1
308 1
309 20
310 20
311 1
312 1
313 10
314 5
315 1
316 20
317 1
318 1
319 20
320 5
321 1
322 1
323 1
324 1
325 20
326 10
327 1
328 10
329 5
330 1
331 1
332 1
333 1
334 20
335 20
336 5
337 1
338 10
339 5
340 1
341 20
342 20
343 10
344 1
345 1
346 1
347 1
348 20
349 20
350 5
351 1
352 20
353 20
354 10
355 1
356 1
357 1
358 1
359 20
360 5
361 1
362 1
363 1
364 1
365 20
366 20
367 10
368 1
369 1
370 20
371 20
372 10
373 20
374 5
375 1
376 1
377 20
378 10
379 5
380 1
381 1
382 20
383 20
384 10
385 20
386 20
387 10
388 1
389 10
390 1
391 1
392 1
393 20
394 5
395 20
396 20
397 5
398 20
399 10
400 5
401 1
402 20
403 20
404 1
405 1
406 10
407 1
408 1
409 1
410 1
411 10
412 1
413 1
414 20
415 10
416 5
417 1
418 20
419 20
420 1
421 1
422 1
423 20
424 10
425 1
426 1
427 10
428 5
429 1
430 1
431 1
432 1
433 20
434 20
435 5
436 1
437 1
438 20
439 10
440 5
441 1
442 1
443 1
444 20
445 20
446 5
447 1
448 1
449 1
450 20
451 20
452 5
453 1
454 1
455 1
456 1
457 20
458 10
459 20
460 20
461 1
462 1
463 20
464 10
465 10
466 5
467 1
468 20
469 20
470 1
471 1
472 1
473 1
474 20
475 10
476 1
477 1
478 20
479 20
480 5
481 1
482 20
483 10
484 1
485 1
486 10
487 1
488 1
489 20
490 20
491 1
492 1
493 1
494 20
495 10
496 1
497 1
498 20
499 5
500 20
501 1
502 1
503 1
504 1
505 20
506 20
507 20
508 1
509 1
510 1
511 20
512 20
513 5
514 1
515 1
516 20
517 20
518 1
519 1
520 20
521 20
522 10
523 10
524 1
525 1
526 1
527 1
528 20
529 20
530 1
531 20
532 10
533 1
534 1
535 1
536 20
537 20
538 10
539 20
540 1
541 1
542 1
543 10
544 5
545 20
546 20
547 20
548 20
549 10
550 20
551 1
552 1
553 10
554 5
555 1
556 1
557 20
558 1
559 1
560 1
561 1
562 20
563 10
564 5
565 1
566 1
567 1
568 10
569 1
570 1
571 1
572 1
573 20
574 20
575 5
576 1
577 1
578 1
579 20
580 10
581 20
582 20
583 5
584 1
585 1
586 10
587 5
588 1
589 1
590 20
591 10
592 5
593 1
594 1
595 20
596 1
597 1
598 1
599 1
600 20
601 20
602 5
603 1
604 1
605 1
606 10
607 5
608 20
609 10
610 5
611 1
612 1
613 1
614 1
615 20
616 20
617 20
618 5
619 1
620 20
621 1
622 1
623 1
624 10
625 5
626 1
627 1
628 1
629 1
630 20
631 20
632 1
633 1
634 1
635 20
636 10
637 5
638 20
639 1
640 20
641 20
642 5
643 1
644 1
645 1
646 20
647 5
648 1
649 1
650 20
651 20
652 5
653 1
654 1
655 1
656 20
657 5
658 1
659 1
660 1
661 10
662 5
663 1
664 1
665 1
666 1
667 20
668 20
669 1
670 1
671 1
672 1
673 20
674 10
675 20
676 10
677 5
678 1
679 20
680 5
681 1
682 1
683 20
684 10
685 1
686 1
687 20
688 5
689 1
690 20
691 5
692 1
693 1
694 1
695 20
696 20
697 20
698 10
699 1
700 1
701 1
702 20
703 10
704 5
705 1
706 1
707 1
708 20
709 10
710 10
711 1
712 1
713 1
714 10
715 1
716 1
717 1
718 20
719 1
720 20
721 20
722 20
723 5
724 1
725 1
726 1
727 20
728 5
729 1
730 1
731 1
732 10
733 5
734 1
735 1
736 1
737 1
738 20
739 1
740 1
741 1
742 1
743 20
744 20
745 5
746 20
747 20
748 1
749 1
750 20
751 20
752 1
753 1
754 1
755 20
756 20
757 5
758 1
759 1
760 1
761 1
762 20
763 20
764 5
765 1
766 1
767 20
768 5
769 1
770 1
771 10
772 5
773 1
774 1
775 1
776 1
777 20
778 10
779 5
780 10
781 5
782 10
783 1
784 1
785 1
786 1
787 10
788 5
789 1
790 20
791 10
792 5
793 1
794 1
795 1
796 1
797 20
798 10
799 5
800 1
801 1
802 20
803 5
804 1
805 1
806 1
807 1
808 20
809 10
810 5
811 1
812 1
813 1
814 1
815 10
816 1
817 1
818 1
819 20
820 10
821 5
822 1
823 20
824 1
825 1
826 1
827 1
828 20
829 5
830 1
831 1
832 1
833 20
834 20
835 1
836 1
837 1
838 20
839 20
840 5
841 1
842 1
DEPOT_SECTION
1
-1
EOF