Normalized Data/p10_27_normalized_split0.sol
841 -7 8 6 456 457 13 14 627 623 626 624 -9 12 11 10 814 379 376 378 380 377 682 -17 18 15 16 131 132 134 130 136 135 133 578 579 -19 20 21 653 649 651 652 650 654 679 681 680 678 -28 29 528 527 529 726 728 727 729 730 -37 38 36 35 762 763 761 765 764 592 589 -40 39 596 594 272 270 271 267 268 269 -42 41 43 483 482 481 484 493 494 462 463 -47 48 44 45 46 520 519 521 -53 51 52 54 274 276 273 275 341 340 787 788 786 683 685 684 -60 776 778 777 372 375 373 374 210 209 609 612 -65 69 70 68 66 67 71 81 813 809 811 812 810 807 808 -82 83 220 219 218 217 221 467 470 468 469 -93 91 92 262 260 259 258 257 256 -105 103 104 106 695 694 348 349 -111 108 109 107 110 112 708 707 648 645 646 -115 114 113 704 703 705 701 179 180 -116 118 117 821 820 819 818 429 430 427 775 770 772 771 773 774 -119 123 120 122 121 486 485 487 152 151 711 710 709 712 -150 148 147 149 49 50 444 445 448 443 447 446 -157 154 153 550 551 549 479 480 477 478 -158 156 155 461 458 460 459 57 58 59 56 55 137 266 264 452 455 -161 160 159 442 437 441 438 439 440 544 532 531 -162 163 164 396 394 395 75 72 73 74 384 -182 183 181 815 816 817 314 313 312 672 673 630 631 629 632 633 -194 191 192 193 189 190 388 391 389 390 342 381 383 382 197 198 -196 195 201 200 199 126 124 125 129 127 128 737 741 509 -211 401 402 619 838 -212 213 495 496 570 571 569 568 567 797 796 798 799 800 492 489 491 490 488 -231 230 185 188 186 184 187 410 411 412 734 736 731 735 733 732 319 321 323 320 -233 232 360 361 362 359 363 358 497 498 -241 89 84 90 87 86 166 165 167 168 516 515 354 353 357 356 355 -246 242 245 244 243 780 779 207 203 202 204 205 206 208 261 -255 254 252 251 250 253 263 265 505 504 -280 278 766 769 767 768 95 98 94 96 97 794 793 789 792 -282 284 283 286 657 658 656 339 338 279 277 281 26 23 24 25 22 27 140 138 139 453 451 454 -285 63 64 62 61 790 791 795 616 618 617 615 337 -287 291 292 293 288 289 290 575 573 577 574 572 576 -302 303 300 301 548 546 547 404 403 -305 304 307 306 564 562 563 566 565 561 607 -317 315 316 31 30 533 530 534 537 536 535 -318 322 835 834 836 832 833 637 638 522 524 526 525 523 -326 324 325 414 413 415 416 431 428 426 662 665 661 664 663 660 -327 328 330 331 831 828 827 717 718 674 676 675 677 -346 343 345 344 175 176 177 174 173 172 178 510 514 513 511 512 -347 350 223 224 222 225 32 34 33 308 543 542 -351 352 239 238 236 240 237 719 620 621 622 -365 364 101 99 100 102 716 715 714 713 698 700 699 -366 368 367 294 299 295 298 296 297 371 369 370 -386 387 385 614 725 720 722 723 724 721 -398 399 400 397 80 77 78 76 79 2 3 1 4 5 756 758 759 755 760 757 597 595 598 -421 418 419 417 420 801 802 642 640 641 628 625 739 740 738 -432 436 449 450 538 540 539 541 606 605 -435 434 433 742 743 744 837 839 841 840 554 555 -464 466 465 247 248 249 582 584 581 580 583 754 -471 472 311 309 310 234 235 603 604 601 600 599 602 -474 473 475 476 666 671 670 667 668 669 500 503 501 502 499 -518 517 422 425 424 423 215 214 216 752 749 751 753 750 830 829 329 332 647 -552 553 85 88 336 335 334 333 586 587 588 585 -593 591 590 686 688 687 659 655 635 636 634 -610 608 613 611 393 392 141 143 146 144 142 145 785 782 783 784 781 -639 644 643 228 229 226 227 803 805 806 804 748 746 747 745 -692 689 691 693 690 545 507 506 508 696 697 -706 702 407 406 409 405 408 556 558 560 559 557 169 171 170 822 824 826 823 825 0 





OBJ=
5673.465
BEST_KNOWN=
0.000